Route #1: 26 58 53 7 35 8 46
Route #2: 34 52 27 45 30 4
Route #3: 2 28 61 21 48
Route #4: 16 56 41 42 64 22 62
Route #5: 33 63 1 43 23 49 24 3
Route #6: 44 32 50 18 55 25 9
Route #7: 39 31 10 38 11
Route #8: 19 14 59 54 13 57 15
Route #9: 47 36 60 20 37 5 29
Route #10: 6 51 17 40 12
Cost 843